column=9;
row=9;
left=[4, 3, 0, 3, 0, 0, 4, 2, 0];
right=[2, 3, 3, 4, 0, 0, 0, 0, 0];
top=[0, 0, 0, 3, 0, 2, 0, 1, 5];
bottom=[0, 3, 0, 2, 0, 0, 0, 4, 0];
Board=[|6,3,0,0,7,0,0,0,0|0,4,0,1,0,3,0,0,6|9,0,1,2,0,4,5,0,7|4,0,3,0,0,0,0,6,0|7,0,8,6,0,0,4,0,0|2,6,0,4,0,7,0,0,0|0,5,6,0,4,0,8,0,0|8,7,4,3,0,5,0,2,0|0,2,9,0,0,6,0,4,0|]